datasets/2-dimensional/CL_05_25_08.vbp
2
1000 1000 
25
47 36 30
56 75 72
49 69 4
67 35 88
28 88 54
97 71 64
92 76 90
79 68 26
74 40 94
46 83 28
59 90 72
56 51 49
79 58 54
44 78 19
42 28 28
41 75 61
33 34 84
33 48 23
84 58 67
26 31 53
28 34 54
55 83 16
99 70 9
27 62 54
31 75 77
