datasets/2-dimensional/CL_05_25_08.txt
1000 1000 
0 30 47 36 
1 72 56 75 
2 4 49 69 
3 88 67 35 
4 54 28 88 
5 64 97 71 
6 90 92 76 
7 26 79 68 
8 94 74 40 
9 28 46 83 
10 72 59 90 
11 49 56 51 
12 54 79 58 
13 19 44 78 
14 28 42 28 
15 61 41 75 
16 84 33 34 
17 23 33 48 
18 67 84 58 
19 53 26 31 
20 54 28 34 
21 16 55 83 
22 9 99 70 
23 54 27 62 
24 77 31 75 
